data/lp_files/pEFS/33_8.lp
\ Model foo
\ LP format - for model browsing. Use MPS format to capture full model detail.
Minimize
  z
Subject To
 allocateEach[1]: x[1,1] + x[2,1] = 1
 allocateEach[2]: x[1,2] + x[2,2] = 1
 allocateEach[3]: x[1,3] + x[2,3] = 1
 allocateEach[4]: x[1,4] + x[2,4] = 1
 allocateEach[5]: x[1,5] + x[2,5] = 1
 allocateEach[6]: x[1,6] + x[2,6] = 1
 allocateEach[7]: x[1,7] + x[2,7] = 1
 allocateEach[8]: x[1,8] + x[2,8] = 1
 allocateEach[9]: x[1,9] + x[2,9] = 1
 allocateEach[10]: x[1,10] + x[2,10] = 1
 allocateEach[11]: x[1,11] + x[2,11] = 1
 allocateEach[12]: x[1,12] + x[2,12] = 1
 allocateEach[13]: x[1,13] + x[2,13] = 1
 allocateAllCash: cashProportion[1] + cashProportion[2] = 1
 findWorstP[1,2]: z + 0.1049042748492001 cashProportion[1]
   - 0.1049042748492001 cashProportion[2] + 0.0784290584841332 x[1,1]
   + 0.1244295830055075 x[1,2] + 0.0473118279569893 x[1,3]
   + 0.057343299239444 x[1,4] + 0.0637949121426698 x[1,5]
   + 0.0550222921584055 x[1,6] + 0.1241542092840283 x[1,7]
   + 0.068095987411487 x[1,8] + 0.0832546551271964 x[1,9]
   + 0.08671649619722 x[1,10] + 0.0391030684500393 x[1,11]
   + 0.0265145554681353 x[1,12] + 0.0409257802255442 x[1,13]
   - 0.0784290584841332 x[2,1] - 0.1244295830055075 x[2,2]
   - 0.0473118279569893 x[2,3] - 0.057343299239444 x[2,4]
   - 0.0637949121426698 x[2,5] - 0.0550222921584055 x[2,6]
   - 0.1241542092840283 x[2,7] - 0.068095987411487 x[2,8]
   - 0.0832546551271964 x[2,9] - 0.08671649619722 x[2,10]
   - 0.0391030684500393 x[2,11] - 0.0265145554681353 x[2,12]
   - 0.0409257802255442 x[2,13] >= 0
 findWorstP[2,1]: z - 0.1165212578469785 cashProportion[1]
   + 0.1165212578469785 cashProportion[2] - 0.125245787028271 x[1,1]
   - 0.0651499482936918 x[1,2] - 0.0752436022546863 x[1,3]
   - 0.0628195231367523 x[1,4] - 0.0517354384840584 x[1,5]
   - 0.00375781056556505 x[1,6] - 0.0396463579824344 x[1,7]
   - 0.1205412412426992 x[1,8] - 0.0439722096800035 x[1,9]
   - 0.1100106325647785 x[1,10] - 0.1105058479106282 x[1,11]
   - 0.022809036223546 x[1,12] - 0.0520413067859067 x[1,13]
   + 0.125245787028271 x[2,1] + 0.0651499482936918 x[2,2]
   + 0.0752436022546863 x[2,3] + 0.0628195231367523 x[2,4]
   + 0.0517354384840584 x[2,5] + 0.00375781056556505 x[2,6]
   + 0.0396463579824344 x[2,7] + 0.1205412412426992 x[2,8]
   + 0.0439722096800035 x[2,9] + 0.1100106325647785 x[2,10]
   + 0.1105058479106282 x[2,11] + 0.022809036223546 x[2,12]
   + 0.0520413067859067 x[2,13] >= 0
Bounds
 z <= 1
 -infinity <= cashProportion[1] <= 1
 -infinity <= cashProportion[2] <= 1
Binaries
 x[1,1] x[1,2] x[1,3] x[1,4] x[1,5] x[1,6] x[1,7] x[1,8] x[1,9] x[1,10]
 x[1,11] x[1,12] x[1,13] x[2,1] x[2,2] x[2,3] x[2,4] x[2,5] x[2,6] x[2,7]
 x[2,8] x[2,9] x[2,10] x[2,11] x[2,12] x[2,13]
End
