data/mps_files/q3/33_8.mps
NAME foo
ROWS
 N  OBJ
 E  allocateEach[1]
 E  allocateEach[2]
 E  allocateEach[3]
 E  allocateEach[4]
 E  allocateEach[5]
 E  allocateEach[6]
 E  allocateEach[7]
 E  allocateEach[8]
 E  allocateEach[9]
 E  allocateEach[10]
 E  allocateEach[11]
 E  allocateEach[12]
 E  allocateEach[13]
 E  allocateAllCash
 G  findWorstP[1,2]
 G  findWorstP[2,1]
COLUMNS
    z         OBJ       1
    z         findWorstP[1,2]  1
    z         findWorstP[2,1]  1
    cashProportion[1]  allocateAllCash  1
    cashProportion[1]  findWorstP[1,2]  1.0490427484920013e-01
    cashProportion[1]  findWorstP[2,1]  -1.1652125784697846e-01
    cashProportion[2]  allocateAllCash  1
    cashProportion[2]  findWorstP[1,2]  -1.0490427484920013e-01
    cashProportion[2]  findWorstP[2,1]  1.1652125784697846e-01
    MARKER    'MARKER'                 'INTORG'
    x[1,1]    allocateEach[1]  1
    x[1,1]    findWorstP[1,2]  7.8429058484133229e-02
    x[1,1]    findWorstP[2,1]  -1.2524578702827097e-01
    x[1,2]    allocateEach[2]  1
    x[1,2]    findWorstP[1,2]  1.2442958300550748e-01
    x[1,2]    findWorstP[2,1]  -6.5149948293691820e-02
    x[1,3]    allocateEach[3]  1
    x[1,3]    findWorstP[1,2]  4.7311827956989252e-02
    x[1,3]    findWorstP[2,1]  -7.5243602254686320e-02
    x[1,4]    allocateEach[4]  1
    x[1,4]    findWorstP[1,2]  5.7343299239444014e-02
    x[1,4]    findWorstP[2,1]  -6.2819523136752251e-02
    x[1,5]    allocateEach[5]  1
    x[1,5]    findWorstP[1,2]  6.3794912142669816e-02
    x[1,5]    findWorstP[2,1]  -5.1735438484058434e-02
    x[1,6]    allocateEach[6]  1
    x[1,6]    findWorstP[1,2]  5.5022292158405456e-02
    x[1,6]    findWorstP[2,1]  -3.7578105655650547e-03
    x[1,7]    allocateEach[7]  1
    x[1,7]    findWorstP[1,2]  1.2415420928402833e-01
    x[1,7]    findWorstP[2,1]  -3.9646357982434412e-02
    x[1,8]    allocateEach[8]  1
    x[1,8]    findWorstP[1,2]  6.8095987411487022e-02
    x[1,8]    findWorstP[2,1]  -1.2054124124269920e-01
    x[1,9]    allocateEach[9]  1
    x[1,9]    findWorstP[1,2]  8.3254655127196445e-02
    x[1,9]    findWorstP[2,1]  -4.3972209680003489e-02
    x[1,10]   allocateEach[10]  1
    x[1,10]   findWorstP[1,2]  8.6716496197220036e-02
    x[1,10]   findWorstP[2,1]  -1.1001063256477851e-01
    x[1,11]   allocateEach[11]  1
    x[1,11]   findWorstP[1,2]  3.9103068450039344e-02
    x[1,11]   findWorstP[2,1]  -1.1050584791062819e-01
    x[1,12]   allocateEach[12]  1
    x[1,12]   findWorstP[1,2]  2.6514555468135324e-02
    x[1,12]   findWorstP[2,1]  -2.2809036223546030e-02
    x[1,13]   allocateEach[13]  1
    x[1,13]   findWorstP[1,2]  4.0925780225544189e-02
    x[1,13]   findWorstP[2,1]  -5.2041306785906745e-02
    x[2,1]    allocateEach[1]  1
    x[2,1]    findWorstP[1,2]  -7.8429058484133229e-02
    x[2,1]    findWorstP[2,1]  1.2524578702827097e-01
    x[2,2]    allocateEach[2]  1
    x[2,2]    findWorstP[1,2]  -1.2442958300550748e-01
    x[2,2]    findWorstP[2,1]  6.5149948293691820e-02
    x[2,3]    allocateEach[3]  1
    x[2,3]    findWorstP[1,2]  -4.7311827956989252e-02
    x[2,3]    findWorstP[2,1]  7.5243602254686320e-02
    x[2,4]    allocateEach[4]  1
    x[2,4]    findWorstP[1,2]  -5.7343299239444014e-02
    x[2,4]    findWorstP[2,1]  6.2819523136752251e-02
    x[2,5]    allocateEach[5]  1
    x[2,5]    findWorstP[1,2]  -6.3794912142669816e-02
    x[2,5]    findWorstP[2,1]  5.1735438484058434e-02
    x[2,6]    allocateEach[6]  1
    x[2,6]    findWorstP[1,2]  -5.5022292158405456e-02
    x[2,6]    findWorstP[2,1]  3.7578105655650547e-03
    x[2,7]    allocateEach[7]  1
    x[2,7]    findWorstP[1,2]  -1.2415420928402833e-01
    x[2,7]    findWorstP[2,1]  3.9646357982434412e-02
    x[2,8]    allocateEach[8]  1
    x[2,8]    findWorstP[1,2]  -6.8095987411487022e-02
    x[2,8]    findWorstP[2,1]  1.2054124124269920e-01
    x[2,9]    allocateEach[9]  1
    x[2,9]    findWorstP[1,2]  -8.3254655127196445e-02
    x[2,9]    findWorstP[2,1]  4.3972209680003489e-02
    x[2,10]   allocateEach[10]  1
    x[2,10]   findWorstP[1,2]  -8.6716496197220036e-02
    x[2,10]   findWorstP[2,1]  1.1001063256477851e-01
    x[2,11]   allocateEach[11]  1
    x[2,11]   findWorstP[1,2]  -3.9103068450039344e-02
    x[2,11]   findWorstP[2,1]  1.1050584791062819e-01
    x[2,12]   allocateEach[12]  1
    x[2,12]   findWorstP[1,2]  -2.6514555468135324e-02
    x[2,12]   findWorstP[2,1]  2.2809036223546030e-02
    x[2,13]   allocateEach[13]  1
    x[2,13]   findWorstP[1,2]  -4.0925780225544189e-02
    x[2,13]   findWorstP[2,1]  5.2041306785906745e-02
    MARKER    'MARKER'                 'INTEND'
RHS
    RHS1      allocateEach[1]  1
    RHS1      allocateEach[2]  1
    RHS1      allocateEach[3]  1
    RHS1      allocateEach[4]  1
    RHS1      allocateEach[5]  1
    RHS1      allocateEach[6]  1
    RHS1      allocateEach[7]  1
    RHS1      allocateEach[8]  1
    RHS1      allocateEach[9]  1
    RHS1      allocateEach[10]  1
    RHS1      allocateEach[11]  1
    RHS1      allocateEach[12]  1
    RHS1      allocateEach[13]  1
    RHS1      allocateAllCash  1
BOUNDS
 UP BND1      z         1
 MI BND1      cashProportion[1]
 UP BND1      cashProportion[1]  1
 MI BND1      cashProportion[2]
 UP BND1      cashProportion[2]  1
 BV BND1      x[1,1]  
 BV BND1      x[1,2]  
 BV BND1      x[1,3]  
 BV BND1      x[1,4]  
 BV BND1      x[1,5]  
 BV BND1      x[1,6]  
 BV BND1      x[1,7]  
 BV BND1      x[1,8]  
 BV BND1      x[1,9]  
 BV BND1      x[1,10] 
 BV BND1      x[1,11] 
 BV BND1      x[1,12] 
 BV BND1      x[1,13] 
 BV BND1      x[2,1]  
 BV BND1      x[2,2]  
 BV BND1      x[2,3]  
 BV BND1      x[2,4]  
 BV BND1      x[2,5]  
 BV BND1      x[2,6]  
 BV BND1      x[2,7]  
 BV BND1      x[2,8]  
 BV BND1      x[2,9]  
 BV BND1      x[2,10] 
 BV BND1      x[2,11] 
 BV BND1      x[2,12] 
 BV BND1      x[2,13] 
ENDATA
